Route #1: 0 28 34 57 42 14 65 27 7 0
Route #2: 0 55 60 21 67 18 0
Route #3: 0 53 2 33 49 9 30 6 15 44 66 58 0
Route #4: 0 24 22 12 29 62 26 43 0
Route #5: 0 23 51 3 13 35 41 59 40 0
Route #6: 0 68 45 20 8 39 38 0
Route #7: 0 52 56 48 1 50 11 54 0
Route #8: 0 46 5 37 32 36 16 0
Route #9: 0 17 10 63 25 47 4 61 64 31 19 0
Cost 1431:
